c Generated tree graph
p edge 505 504
e 1 46
e 2 22
e 2 333
e 3 156
e 3 199
e 4 141
e 4 260
e 5 58
e 5 270
e 5 457
e 6 145
e 6 159
e 7 100
e 8 115
e 9 202
e 9 207
e 10 107
e 10 132
e 10 419
e 11 237
e 11 371
e 12 65
e 12 115
e 13 158
e 13 254
e 13 427
e 14 163
e 15 187
e 15 387
e 16 233
e 17 64
e 17 436
e 17 444
e 18 419
e 19 446
e 19 504
e 20 216
e 20 293
e 20 328
e 21 198
e 21 300
e 23 409
e 24 63
e 24 248
e 24 451
e 25 57
e 25 486
e 26 152
e 26 290
e 27 467
e 28 145
e 28 189
e 28 277
e 29 123
e 30 380
e 30 439
e 31 81
e 32 373
e 32 418
e 33 295
e 33 438
e 34 386
e 34 458
e 35 233
e 35 240
e 35 286
e 35 316
e 36 409
e 37 146
e 38 379
e 38 383
e 39 71
e 40 99
e 40 171
e 40 449
e 40 464
e 41 162
e 41 473
e 42 131
e 42 151
e 42 420
e 43 221
e 43 426
e 44 206
e 45 186
e 45 348
e 45 430
e 46 438
e 46 486
e 47 166
e 48 256
e 49 127
e 49 307
e 50 182
e 50 215
e 50 393
e 51 111
e 51 405
e 52 69
e 52 265
e 52 418
e 53 257
e 53 322
e 53 456
e 54 114
e 54 166
e 55 209
e 55 232
e 55 409
e 56 370
e 59 163
e 60 115
e 61 216
e 62 457
e 64 416
e 65 131
e 65 190
e 65 311
e 65 474
e 66 364
e 67 333
e 67 347
e 67 422
e 68 326
e 68 351
e 69 72
e 69 123
e 70 170
e 70 179
e 71 314
e 71 339
e 73 331
e 74 305
e 74 432
e 75 247
e 75 432
e 75 467
e 76 376
e 77 379
e 78 229
e 78 310
e 78 335
e 79 467
e 80 183
e 81 419
e 82 201
e 82 276
e 83 259
e 84 314
e 85 210
e 85 328
e 85 364
e 85 454
e 86 160
e 86 320
e 86 409
e 87 468
e 88 324
e 89 127
e 90 106
e 90 361
e 91 196
e 91 325
e 92 434
e 93 311
e 94 192
e 94 404
e 95 228
e 95 236
e 95 281
e 96 359
e 96 434
e 96 440
e 96 452
e 97 167
e 97 424
e 98 101
e 99 128
e 99 193
e 99 221
e 99 371
e 100 449
e 101 133
e 101 223
e 101 416
e 101 450
e 102 272
e 103 401
e 103 480
e 104 249
e 104 366
e 105 200
e 105 401
e 106 346
e 108 118
e 108 362
e 109 321
e 109 340
e 110 314
e 112 128
e 113 164
e 114 202
e 115 148
e 115 372
e 115 425
e 116 271
e 116 323
e 116 439
e 117 205
e 117 404
e 118 168
e 118 354
e 118 466
e 119 144
e 119 254
e 119 375
e 120 248
e 121 466
e 122 402
e 124 199
e 125 201
e 125 442
e 126 247
e 126 299
e 126 319
e 127 175
e 127 228
e 129 423
e 129 447
e 130 150
e 132 172
e 132 255
e 133 322
e 134 164
e 134 403
e 135 213
e 135 486
e 136 261
e 137 206
e 137 242
e 137 287
e 138 247
e 139 348
e 139 456
e 140 226
e 140 288
e 140 313
e 141 392
e 141 468
e 142 197
e 143 210
e 143 394
e 145 332
e 146 294
e 146 412
e 146 503
e 147 195
e 147 376
e 147 460
e 148 173
e 148 197
e 148 471
e 149 153
e 149 340
e 150 282
e 150 421
e 152 276
e 153 235
e 154 289
e 155 204
e 155 397
e 155 426
e 156 455
e 157 340
e 157 482
e 159 194
e 161 196
e 162 258
e 163 354
e 165 276
e 167 405
e 169 224
e 169 448
e 170 307
e 174 248
e 176 477
e 176 502
e 177 478
e 178 250
e 179 208
e 179 211
e 180 329
e 181 346
e 181 487
e 182 471
e 183 200
e 183 274
e 183 373
e 183 413
e 184 445
e 184 451
e 185 279
e 185 353
e 186 238
e 187 214
e 187 280
e 187 493
e 188 217
e 189 223
e 189 324
e 189 437
e 190 218
e 191 292
e 191 356
e 192 481
e 193 349
e 193 396
e 194 308
e 195 446
e 196 333
e 198 419
e 200 434
e 201 320
e 202 400
e 203 369
e 203 474
e 204 429
e 206 440
e 207 262
e 207 368
e 207 374
e 208 363
e 211 444
e 212 231
e 213 261
e 213 269
e 215 229
e 216 247
e 217 350
e 217 424
e 217 427
e 219 250
e 219 254
e 219 500
e 220 329
e 221 403
e 222 352
e 224 377
e 225 365
e 226 361
e 227 502
e 228 367
e 230 360
e 231 299
e 231 302
e 233 454
e 234 251
e 234 327
e 234 382
e 235 272
e 235 312
e 235 398
e 237 329
e 237 465
e 238 298
e 238 356
e 239 395
e 239 402
e 240 275
e 240 497
e 241 312
e 243 285
e 243 410
e 244 297
e 244 482
e 245 498
e 246 293
e 247 407
e 248 463
e 249 295
e 249 296
e 249 341
e 251 300
e 252 413
e 253 263
e 254 343
e 256 335
e 258 450
e 259 435
e 259 498
e 260 326
e 261 404
e 262 502
e 263 318
e 263 469
e 264 349
e 264 453
e 266 412
e 266 474
e 267 348
e 268 409
e 270 373
e 270 483
e 273 498
e 274 284
e 275 338
e 275 357
e 278 283
e 280 417
e 282 330
e 282 389
e 282 496
e 283 308
e 285 302
e 285 427
e 288 332
e 289 490
e 290 404
e 291 372
e 291 411
e 293 373
e 294 315
e 294 339
e 295 306
e 295 395
e 297 327
e 298 491
e 301 344
e 303 461
e 304 372
e 305 374
e 305 451
e 309 344
e 309 403
e 309 430
e 317 358
e 317 451
e 318 494
e 326 478
e 327 499
e 330 423
e 330 470
e 331 370
e 334 407
e 335 441
e 336 453
e 337 369
e 342 467
e 343 354
e 344 365
e 345 396
e 347 378
e 347 431
e 349 443
e 351 403
e 351 406
e 352 356
e 352 391
e 353 503
e 355 440
e 357 484
e 360 428
e 364 475
e 370 455
e 371 501
e 374 494
e 374 498
e 379 423
e 380 444
e 380 505
e 381 407
e 383 487
e 384 496
e 385 393
e 386 495
e 387 389
e 388 424
e 390 485
e 393 458
e 399 503
e 408 474
e 410 476
e 414 459
e 415 464
e 418 420
e 419 437
e 422 481
e 425 459
e 426 462
e 428 466
e 429 504
e 431 488
e 433 484
e 436 490
e 439 472
e 441 444
e 444 461
e 448 455
e 448 471
e 459 485
e 459 489
e 461 479
e 465 492
e 488 502
